Minimize
  - 18 y_0 - 40 y_1 - 25 y_2 - 44 y_3 - 13 y_4 - 33 y_6 - 46 y_7 - 34 y_8
   - 31 y_9 + 47 x_0_1 + 15 x_0_2 + 13 x_0_4 + 36 x_0_5 + 56 x_0_7
   + 53 x_0_8 + 57 x_0_9 + 54 x_1_4 + 80 x_1_5 + 90 x_1_6 + 29 x_1_7
   + 84 x_1_8 + 28 x_2_4 + 50 x_2_5 + 51 x_2_6 + 43 x_2_7 + 46 x_2_8
   + 76 x_3_4 + 88 x_3_5 + 30 x_3_6 + 23 x_3_8 + 26 x_4_5 + 63 x_4_6
   + 67 x_4_7 + 62 x_4_8 + 63 x_4_9 + 92 x_5_7 + 63 x_5_9 + 80 x_6_7
   + 8 x_6_8 + 86 x_7_9 + 284 Constant
Subject To
 c_0: y_1 = 1
 c_1_0: y_0 >= 1
 c_1_1: y_1 >= 1
 c_1_2: y_2 >= 1
 c_1_3: y_3 >= 1
 c_1_4: y_4 >= 1
 c_1_5: y_5 >= 1
 c_1_6: y_6 >= 1
 c_1_7: y_7 >= 1
 c_1_8: y_8 >= 1
 c_1_9: y_9 >= 1
 c_2_0: - 2 y_0 + x_0_1 + x_0_2 + x_0_4 + x_0_5 + x_0_7 + x_0_8 + x_0_9
   = 0
 c_2_1: - 2 y_1 + x_0_1 + x_1_4 + x_1_5 + x_1_6 + x_1_7 + x_1_8 = 0
 c_2_2: - 2 y_2 + x_0_2 + x_2_4 + x_2_5 + x_2_6 + x_2_7 + x_2_8 = 0
 c_2_3: - 2 y_3 + x_3_4 + x_3_5 + x_3_6 + x_3_8 = 0
 c_2_4: - 2 y_4 + x_0_4 + x_1_4 + x_2_4 + x_3_4 + x_4_5 + x_4_6 + x_4_7
   + x_4_8 + x_4_9 = 0
 c_2_5: - 2 y_5 + x_0_5 + x_1_5 + x_2_5 + x_3_5 + x_4_5 + x_5_7 + x_5_9
   = 0
 c_2_6: - 2 y_6 + x_1_6 + x_2_6 + x_3_6 + x_4_6 + x_6_7 + x_6_8 = 0
 c_2_7: - 2 y_7 + x_0_7 + x_1_7 + x_2_7 + x_4_7 + x_5_7 + x_6_7 + x_7_9
   = 0
 c_2_8: - 2 y_8 + x_0_8 + x_1_8 + x_2_8 + x_3_8 + x_4_8 + x_6_8 = 0
 c_2_9: - 2 y_9 + x_0_9 + x_4_9 + x_5_9 + x_7_9 = 0
Bounds
 Constant = 1
Binaries
 y_0 y_1 y_2 y_3 y_4 y_5 y_6 y_7 y_8 y_9 x_0_1 x_0_2 x_0_4 x_0_5 x_0_7
 x_0_8 x_0_9 x_1_4 x_1_5 x_1_6 x_1_7 x_1_8 x_2_4 x_2_5 x_2_6 x_2_7 x_2_8
 x_3_4 x_3_5 x_3_6 x_3_8 x_4_5 x_4_6 x_4_7 x_4_8 x_4_9 x_5_7 x_5_9 x_6_7
 x_6_8 x_7_9
End
